max_width = 32;
n_blocks = 27;
width = [3, 3, 3, 3, 3, 4, 3, 3, 3, 3, 3, 4, 3, 4, 3, 3, 3, 4, 3, 4, 3, 4, 3, 4, 3, 4, 3];
height = [27, 25, 24, 23, 22, 18, 18, 15, 14, 13, 12, 11, 11, 10, 10, 9, 8, 7, 7, 6, 6, 5, 5, 4, 4, 3, 3];
